p cnf 100 1225
1 2 3 4 0
5 6 7 8 0
9 10 11 12 0
13 14 15 16 0
17 18 19 20 0
21 22 23 24 0
25 26 27 28 0
29 30 31 32 0
33 34 35 36 0
37 38 39 40 0
41 42 43 44 0
45 46 47 48 0
49 50 51 52 0
53 54 55 56 0
57 58 59 60 0
61 62 63 64 0
65 66 67 68 0
69 70 71 72 0
73 74 75 76 0
77 78 79 80 0
81 82 83 84 0
85 86 87 88 0
89 90 91 92 0
93 94 95 96 0
97 98 99 100 0
-1 -5 0
-1 -9 0
-1 -13 0
-1 -17 0
-1 -21 0
-1 -25 0
-1 -29 0
-1 -33 0
-1 -37 0
-1 -41 0
-1 -45 0
-1 -49 0
-1 -53 0
-1 -57 0
-1 -61 0
-1 -65 0
-1 -69 0
-1 -73 0
-1 -77 0
-1 -81 0
-1 -85 0
-1 -89 0
-1 -93 0
-1 -97 0
-5 -9 0
-5 -13 0
-5 -17 0
-5 -21 0
-5 -25 0
-5 -29 0
-5 -33 0
-5 -37 0
-5 -41 0
-5 -45 0
-5 -49 0
-5 -53 0
-5 -57 0
-5 -61 0
-5 -65 0
-5 -69 0
-5 -73 0
-5 -77 0
-5 -81 0
-5 -85 0
-5 -89 0
-5 -93 0
-5 -97 0
-9 -13 0
-9 -17 0
-9 -21 0
-9 -25 0
-9 -29 0
-9 -33 0
-9 -37 0
-9 -41 0
-9 -45 0
-9 -49 0
-9 -53 0
-9 -57 0
-9 -61 0
-9 -65 0
-9 -69 0
-9 -73 0
-9 -77 0
-9 -81 0
-9 -85 0
-9 -89 0
-9 -93 0
-9 -97 0
-13 -17 0
-13 -21 0
-13 -25 0
-13 -29 0
-13 -33 0
-13 -37 0
-13 -41 0
-13 -45 0
-13 -49 0
-13 -53 0
-13 -57 0
-13 -61 0
-13 -65 0
-13 -69 0
-13 -73 0
-13 -77 0
-13 -81 0
-13 -85 0
-13 -89 0
-13 -93 0
-13 -97 0
-17 -21 0
-17 -25 0
-17 -29 0
-17 -33 0
-17 -37 0
-17 -41 0
-17 -45 0
-17 -49 0
-17 -53 0
-17 -57 0
-17 -61 0
-17 -65 0
-17 -69 0
-17 -73 0
-17 -77 0
-17 -81 0
-17 -85 0
-17 -89 0
-17 -93 0
-17 -97 0
-21 -25 0
-21 -29 0
-21 -33 0
-21 -37 0
-21 -41 0
-21 -45 0
-21 -49 0
-21 -53 0
-21 -57 0
-21 -61 0
-21 -65 0
-21 -69 0
-21 -73 0
-21 -77 0
-21 -81 0
-21 -85 0
-21 -89 0
-21 -93 0
-21 -97 0
-25 -29 0
-25 -33 0
-25 -37 0
-25 -41 0
-25 -45 0
-25 -49 0
-25 -53 0
-25 -57 0
-25 -61 0
-25 -65 0
-25 -69 0
-25 -73 0
-25 -77 0
-25 -81 0
-25 -85 0
-25 -89 0
-25 -93 0
-25 -97 0
-29 -33 0
-29 -37 0
-29 -41 0
-29 -45 0
-29 -49 0
-29 -53 0
-29 -57 0
-29 -61 0
-29 -65 0
-29 -69 0
-29 -73 0
-29 -77 0
-29 -81 0
-29 -85 0
-29 -89 0
-29 -93 0
-29 -97 0
-33 -37 0
-33 -41 0
-33 -45 0
-33 -49 0
-33 -53 0
-33 -57 0
-33 -61 0
-33 -65 0
-33 -69 0
-33 -73 0
-33 -77 0
-33 -81 0
-33 -85 0
-33 -89 0
-33 -93 0
-33 -97 0
-37 -41 0
-37 -45 0
-37 -49 0
-37 -53 0
-37 -57 0
-37 -61 0
-37 -65 0
-37 -69 0
-37 -73 0
-37 -77 0
-37 -81 0
-37 -85 0
-37 -89 0
-37 -93 0
-37 -97 0
-41 -45 0
-41 -49 0
-41 -53 0
-41 -57 0
-41 -61 0
-41 -65 0
-41 -69 0
-41 -73 0
-41 -77 0
-41 -81 0
-41 -85 0
-41 -89 0
-41 -93 0
-41 -97 0
-45 -49 0
-45 -53 0
-45 -57 0
-45 -61 0
-45 -65 0
-45 -69 0
-45 -73 0
-45 -77 0
-45 -81 0
-45 -85 0
-45 -89 0
-45 -93 0
-45 -97 0
-49 -53 0
-49 -57 0
-49 -61 0
-49 -65 0
-49 -69 0
-49 -73 0
-49 -77 0
-49 -81 0
-49 -85 0
-49 -89 0
-49 -93 0
-49 -97 0
-53 -57 0
-53 -61 0
-53 -65 0
-53 -69 0
-53 -73 0
-53 -77 0
-53 -81 0
-53 -85 0
-53 -89 0
-53 -93 0
-53 -97 0
-57 -61 0
-57 -65 0
-57 -69 0
-57 -73 0
-57 -77 0
-57 -81 0
-57 -85 0
-57 -89 0
-57 -93 0
-57 -97 0
-61 -65 0
-61 -69 0
-61 -73 0
-61 -77 0
-61 -81 0
-61 -85 0
-61 -89 0
-61 -93 0
-61 -97 0
-65 -69 0
-65 -73 0
-65 -77 0
-65 -81 0
-65 -85 0
-65 -89 0
-65 -93 0
-65 -97 0
-69 -73 0
-69 -77 0
-69 -81 0
-69 -85 0
-69 -89 0
-69 -93 0
-69 -97 0
-73 -77 0
-73 -81 0
-73 -85 0
-73 -89 0
-73 -93 0
-73 -97 0
-77 -81 0
-77 -85 0
-77 -89 0
-77 -93 0
-77 -97 0
-81 -85 0
-81 -89 0
-81 -93 0
-81 -97 0
-85 -89 0
-85 -93 0
-85 -97 0
-89 -93 0
-89 -97 0
-93 -97 0
-2 -6 0
-2 -10 0
-2 -14 0
-2 -18 0
-2 -22 0
-2 -26 0
-2 -30 0
-2 -34 0
-2 -38 0
-2 -42 0
-2 -46 0
-2 -50 0
-2 -54 0
-2 -58 0
-2 -62 0
-2 -66 0
-2 -70 0
-2 -74 0
-2 -78 0
-2 -82 0
-2 -86 0
-2 -90 0
-2 -94 0
-2 -98 0
-6 -10 0
-6 -14 0
-6 -18 0
-6 -22 0
-6 -26 0
-6 -30 0
-6 -34 0
-6 -38 0
-6 -42 0
-6 -46 0
-6 -50 0
-6 -54 0
-6 -58 0
-6 -62 0
-6 -66 0
-6 -70 0
-6 -74 0
-6 -78 0
-6 -82 0
-6 -86 0
-6 -90 0
-6 -94 0
-6 -98 0
-10 -14 0
-10 -18 0
-10 -22 0
-10 -26 0
-10 -30 0
-10 -34 0
-10 -38 0
-10 -42 0
-10 -46 0
-10 -50 0
-10 -54 0
-10 -58 0
-10 -62 0
-10 -66 0
-10 -70 0
-10 -74 0
-10 -78 0
-10 -82 0
-10 -86 0
-10 -90 0
-10 -94 0
-10 -98 0
-14 -18 0
-14 -22 0
-14 -26 0
-14 -30 0
-14 -34 0
-14 -38 0
-14 -42 0
-14 -46 0
-14 -50 0
-14 -54 0
-14 -58 0
-14 -62 0
-14 -66 0
-14 -70 0
-14 -74 0
-14 -78 0
-14 -82 0
-14 -86 0
-14 -90 0
-14 -94 0
-14 -98 0
-18 -22 0
-18 -26 0
-18 -30 0
-18 -34 0
-18 -38 0
-18 -42 0
-18 -46 0
-18 -50 0
-18 -54 0
-18 -58 0
-18 -62 0
-18 -66 0
-18 -70 0
-18 -74 0
-18 -78 0
-18 -82 0
-18 -86 0
-18 -90 0
-18 -94 0
-18 -98 0
-22 -26 0
-22 -30 0
-22 -34 0
-22 -38 0
-22 -42 0
-22 -46 0
-22 -50 0
-22 -54 0
-22 -58 0
-22 -62 0
-22 -66 0
-22 -70 0
-22 -74 0
-22 -78 0
-22 -82 0
-22 -86 0
-22 -90 0
-22 -94 0
-22 -98 0
-26 -30 0
-26 -34 0
-26 -38 0
-26 -42 0
-26 -46 0
-26 -50 0
-26 -54 0
-26 -58 0
-26 -62 0
-26 -66 0
-26 -70 0
-26 -74 0
-26 -78 0
-26 -82 0
-26 -86 0
-26 -90 0
-26 -94 0
-26 -98 0
-30 -34 0
-30 -38 0
-30 -42 0
-30 -46 0
-30 -50 0
-30 -54 0
-30 -58 0
-30 -62 0
-30 -66 0
-30 -70 0
-30 -74 0
-30 -78 0
-30 -82 0
-30 -86 0
-30 -90 0
-30 -94 0
-30 -98 0
-34 -38 0
-34 -42 0
-34 -46 0
-34 -50 0
-34 -54 0
-34 -58 0
-34 -62 0
-34 -66 0
-34 -70 0
-34 -74 0
-34 -78 0
-34 -82 0
-34 -86 0
-34 -90 0
-34 -94 0
-34 -98 0
-38 -42 0
-38 -46 0
-38 -50 0
-38 -54 0
-38 -58 0
-38 -62 0
-38 -66 0
-38 -70 0
-38 -74 0
-38 -78 0
-38 -82 0
-38 -86 0
-38 -90 0
-38 -94 0
-38 -98 0
-42 -46 0
-42 -50 0
-42 -54 0
-42 -58 0
-42 -62 0
-42 -66 0
-42 -70 0
-42 -74 0
-42 -78 0
-42 -82 0
-42 -86 0
-42 -90 0
-42 -94 0
-42 -98 0
-46 -50 0
-46 -54 0
-46 -58 0
-46 -62 0
-46 -66 0
-46 -70 0
-46 -74 0
-46 -78 0
-46 -82 0
-46 -86 0
-46 -90 0
-46 -94 0
-46 -98 0
-50 -54 0
-50 -58 0
-50 -62 0
-50 -66 0
-50 -70 0
-50 -74 0
-50 -78 0
-50 -82 0
-50 -86 0
-50 -90 0
-50 -94 0
-50 -98 0
-54 -58 0
-54 -62 0
-54 -66 0
-54 -70 0
-54 -74 0
-54 -78 0
-54 -82 0
-54 -86 0
-54 -90 0
-54 -94 0
-54 -98 0
-58 -62 0
-58 -66 0
-58 -70 0
-58 -74 0
-58 -78 0
-58 -82 0
-58 -86 0
-58 -90 0
-58 -94 0
-58 -98 0
-62 -66 0
-62 -70 0
-62 -74 0
-62 -78 0
-62 -82 0
-62 -86 0
-62 -90 0
-62 -94 0
-62 -98 0
-66 -70 0
-66 -74 0
-66 -78 0
-66 -82 0
-66 -86 0
-66 -90 0
-66 -94 0
-66 -98 0
-70 -74 0
-70 -78 0
-70 -82 0
-70 -86 0
-70 -90 0
-70 -94 0
-70 -98 0
-74 -78 0
-74 -82 0
-74 -86 0
-74 -90 0
-74 -94 0
-74 -98 0
-78 -82 0
-78 -86 0
-78 -90 0
-78 -94 0
-78 -98 0
-82 -86 0
-82 -90 0
-82 -94 0
-82 -98 0
-86 -90 0
-86 -94 0
-86 -98 0
-90 -94 0
-90 -98 0
-94 -98 0
-3 -7 0
-3 -11 0
-3 -15 0
-3 -19 0
-3 -23 0
-3 -27 0
-3 -31 0
-3 -35 0
-3 -39 0
-3 -43 0
-3 -47 0
-3 -51 0
-3 -55 0
-3 -59 0
-3 -63 0
-3 -67 0
-3 -71 0
-3 -75 0
-3 -79 0
-3 -83 0
-3 -87 0
-3 -91 0
-3 -95 0
-3 -99 0
-7 -11 0
-7 -15 0
-7 -19 0
-7 -23 0
-7 -27 0
-7 -31 0
-7 -35 0
-7 -39 0
-7 -43 0
-7 -47 0
-7 -51 0
-7 -55 0
-7 -59 0
-7 -63 0
-7 -67 0
-7 -71 0
-7 -75 0
-7 -79 0
-7 -83 0
-7 -87 0
-7 -91 0
-7 -95 0
-7 -99 0
-11 -15 0
-11 -19 0
-11 -23 0
-11 -27 0
-11 -31 0
-11 -35 0
-11 -39 0
-11 -43 0
-11 -47 0
-11 -51 0
-11 -55 0
-11 -59 0
-11 -63 0
-11 -67 0
-11 -71 0
-11 -75 0
-11 -79 0
-11 -83 0
-11 -87 0
-11 -91 0
-11 -95 0
-11 -99 0
-15 -19 0
-15 -23 0
-15 -27 0
-15 -31 0
-15 -35 0
-15 -39 0
-15 -43 0
-15 -47 0
-15 -51 0
-15 -55 0
-15 -59 0
-15 -63 0
-15 -67 0
-15 -71 0
-15 -75 0
-15 -79 0
-15 -83 0
-15 -87 0
-15 -91 0
-15 -95 0
-15 -99 0
-19 -23 0
-19 -27 0
-19 -31 0
-19 -35 0
-19 -39 0
-19 -43 0
-19 -47 0
-19 -51 0
-19 -55 0
-19 -59 0
-19 -63 0
-19 -67 0
-19 -71 0
-19 -75 0
-19 -79 0
-19 -83 0
-19 -87 0
-19 -91 0
-19 -95 0
-19 -99 0
-23 -27 0
-23 -31 0
-23 -35 0
-23 -39 0
-23 -43 0
-23 -47 0
-23 -51 0
-23 -55 0
-23 -59 0
-23 -63 0
-23 -67 0
-23 -71 0
-23 -75 0
-23 -79 0
-23 -83 0
-23 -87 0
-23 -91 0
-23 -95 0
-23 -99 0
-27 -31 0
-27 -35 0
-27 -39 0
-27 -43 0
-27 -47 0
-27 -51 0
-27 -55 0
-27 -59 0
-27 -63 0
-27 -67 0
-27 -71 0
-27 -75 0
-27 -79 0
-27 -83 0
-27 -87 0
-27 -91 0
-27 -95 0
-27 -99 0
-31 -35 0
-31 -39 0
-31 -43 0
-31 -47 0
-31 -51 0
-31 -55 0
-31 -59 0
-31 -63 0
-31 -67 0
-31 -71 0
-31 -75 0
-31 -79 0
-31 -83 0
-31 -87 0
-31 -91 0
-31 -95 0
-31 -99 0
-35 -39 0
-35 -43 0
-35 -47 0
-35 -51 0
-35 -55 0
-35 -59 0
-35 -63 0
-35 -67 0
-35 -71 0
-35 -75 0
-35 -79 0
-35 -83 0
-35 -87 0
-35 -91 0
-35 -95 0
-35 -99 0
-39 -43 0
-39 -47 0
-39 -51 0
-39 -55 0
-39 -59 0
-39 -63 0
-39 -67 0
-39 -71 0
-39 -75 0
-39 -79 0
-39 -83 0
-39 -87 0
-39 -91 0
-39 -95 0
-39 -99 0
-43 -47 0
-43 -51 0
-43 -55 0
-43 -59 0
-43 -63 0
-43 -67 0
-43 -71 0
-43 -75 0
-43 -79 0
-43 -83 0
-43 -87 0
-43 -91 0
-43 -95 0
-43 -99 0
-47 -51 0
-47 -55 0
-47 -59 0
-47 -63 0
-47 -67 0
-47 -71 0
-47 -75 0
-47 -79 0
-47 -83 0
-47 -87 0
-47 -91 0
-47 -95 0
-47 -99 0
-51 -55 0
-51 -59 0
-51 -63 0
-51 -67 0
-51 -71 0
-51 -75 0
-51 -79 0
-51 -83 0
-51 -87 0
-51 -91 0
-51 -95 0
-51 -99 0
-55 -59 0
-55 -63 0
-55 -67 0
-55 -71 0
-55 -75 0
-55 -79 0
-55 -83 0
-55 -87 0
-55 -91 0
-55 -95 0
-55 -99 0
-59 -63 0
-59 -67 0
-59 -71 0
-59 -75 0
-59 -79 0
-59 -83 0
-59 -87 0
-59 -91 0
-59 -95 0
-59 -99 0
-63 -67 0
-63 -71 0
-63 -75 0
-63 -79 0
-63 -83 0
-63 -87 0
-63 -91 0
-63 -95 0
-63 -99 0
-67 -71 0
-67 -75 0
-67 -79 0
-67 -83 0
-67 -87 0
-67 -91 0
-67 -95 0
-67 -99 0
-71 -75 0
-71 -79 0
-71 -83 0
-71 -87 0
-71 -91 0
-71 -95 0
-71 -99 0
-75 -79 0
-75 -83 0
-75 -87 0
-75 -91 0
-75 -95 0
-75 -99 0
-79 -83 0
-79 -87 0
-79 -91 0
-79 -95 0
-79 -99 0
-83 -87 0
-83 -91 0
-83 -95 0
-83 -99 0
-87 -91 0
-87 -95 0
-87 -99 0
-91 -95 0
-91 -99 0
-95 -99 0
-4 -8 0
-4 -12 0
-4 -16 0
-4 -20 0
-4 -24 0
-4 -28 0
-4 -32 0
-4 -36 0
-4 -40 0
-4 -44 0
-4 -48 0
-4 -52 0
-4 -56 0
-4 -60 0
-4 -64 0
-4 -68 0
-4 -72 0
-4 -76 0
-4 -80 0
-4 -84 0
-4 -88 0
-4 -92 0
-4 -96 0
-4 -100 0
-8 -12 0
-8 -16 0
-8 -20 0
-8 -24 0
-8 -28 0
-8 -32 0
-8 -36 0
-8 -40 0
-8 -44 0
-8 -48 0
-8 -52 0
-8 -56 0
-8 -60 0
-8 -64 0
-8 -68 0
-8 -72 0
-8 -76 0
-8 -80 0
-8 -84 0
-8 -88 0
-8 -92 0
-8 -96 0
-8 -100 0
-12 -16 0
-12 -20 0
-12 -24 0
-12 -28 0
-12 -32 0
-12 -36 0
-12 -40 0
-12 -44 0
-12 -48 0
-12 -52 0
-12 -56 0
-12 -60 0
-12 -64 0
-12 -68 0
-12 -72 0
-12 -76 0
-12 -80 0
-12 -84 0
-12 -88 0
-12 -92 0
-12 -96 0
-12 -100 0
-16 -20 0
-16 -24 0
-16 -28 0
-16 -32 0
-16 -36 0
-16 -40 0
-16 -44 0
-16 -48 0
-16 -52 0
-16 -56 0
-16 -60 0
-16 -64 0
-16 -68 0
-16 -72 0
-16 -76 0
-16 -80 0
-16 -84 0
-16 -88 0
-16 -92 0
-16 -96 0
-16 -100 0
-20 -24 0
-20 -28 0
-20 -32 0
-20 -36 0
-20 -40 0
-20 -44 0
-20 -48 0
-20 -52 0
-20 -56 0
-20 -60 0
-20 -64 0
-20 -68 0
-20 -72 0
-20 -76 0
-20 -80 0
-20 -84 0
-20 -88 0
-20 -92 0
-20 -96 0
-20 -100 0
-24 -28 0
-24 -32 0
-24 -36 0
-24 -40 0
-24 -44 0
-24 -48 0
-24 -52 0
-24 -56 0
-24 -60 0
-24 -64 0
-24 -68 0
-24 -72 0
-24 -76 0
-24 -80 0
-24 -84 0
-24 -88 0
-24 -92 0
-24 -96 0
-24 -100 0
-28 -32 0
-28 -36 0
-28 -40 0
-28 -44 0
-28 -48 0
-28 -52 0
-28 -56 0
-28 -60 0
-28 -64 0
-28 -68 0
-28 -72 0
-28 -76 0
-28 -80 0
-28 -84 0
-28 -88 0
-28 -92 0
-28 -96 0
-28 -100 0
-32 -36 0
-32 -40 0
-32 -44 0
-32 -48 0
-32 -52 0
-32 -56 0
-32 -60 0
-32 -64 0
-32 -68 0
-32 -72 0
-32 -76 0
-32 -80 0
-32 -84 0
-32 -88 0
-32 -92 0
-32 -96 0
-32 -100 0
-36 -40 0
-36 -44 0
-36 -48 0
-36 -52 0
-36 -56 0
-36 -60 0
-36 -64 0
-36 -68 0
-36 -72 0
-36 -76 0
-36 -80 0
-36 -84 0
-36 -88 0
-36 -92 0
-36 -96 0
-36 -100 0
-40 -44 0
-40 -48 0
-40 -52 0
-40 -56 0
-40 -60 0
-40 -64 0
-40 -68 0
-40 -72 0
-40 -76 0
-40 -80 0
-40 -84 0
-40 -88 0
-40 -92 0
-40 -96 0
-40 -100 0
-44 -48 0
-44 -52 0
-44 -56 0
-44 -60 0
-44 -64 0
-44 -68 0
-44 -72 0
-44 -76 0
-44 -80 0
-44 -84 0
-44 -88 0
-44 -92 0
-44 -96 0
-44 -100 0
-48 -52 0
-48 -56 0
-48 -60 0
-48 -64 0
-48 -68 0
-48 -72 0
-48 -76 0
-48 -80 0
-48 -84 0
-48 -88 0
-48 -92 0
-48 -96 0
-48 -100 0
-52 -56 0
-52 -60 0
-52 -64 0
-52 -68 0
-52 -72 0
-52 -76 0
-52 -80 0
-52 -84 0
-52 -88 0
-52 -92 0
-52 -96 0
-52 -100 0
-56 -60 0
-56 -64 0
-56 -68 0
-56 -72 0
-56 -76 0
-56 -80 0
-56 -84 0
-56 -88 0
-56 -92 0
-56 -96 0
-56 -100 0
-60 -64 0
-60 -68 0
-60 -72 0
-60 -76 0
-60 -80 0
-60 -84 0
-60 -88 0
-60 -92 0
-60 -96 0
-60 -100 0
-64 -68 0
-64 -72 0
-64 -76 0
-64 -80 0
-64 -84 0
-64 -88 0
-64 -92 0
-64 -96 0
-64 -100 0
-68 -72 0
-68 -76 0
-68 -80 0
-68 -84 0
-68 -88 0
-68 -92 0
-68 -96 0
-68 -100 0
-72 -76 0
-72 -80 0
-72 -84 0
-72 -88 0
-72 -92 0
-72 -96 0
-72 -100 0
-76 -80 0
-76 -84 0
-76 -88 0
-76 -92 0
-76 -96 0
-76 -100 0
-80 -84 0
-80 -88 0
-80 -92 0
-80 -96 0
-80 -100 0
-84 -88 0
-84 -92 0
-84 -96 0
-84 -100 0
-88 -92 0
-88 -96 0
-88 -100 0
-92 -96 0
-92 -100 0
-96 -100 0
